Welcome to the CBC MILP Solver 
Version: 2.10.3 
Build Date: Dec 15 2019 

command line - /home/mona/college/planning/.venv/lib/python3.12/site-packages/pulp/solverdir/cbc/linux/64/cbc /tmp/f5c205031bf94b7a839b7e9dd1fad673-pulp.mps -max -timeMode elapsed -branch -printingOptions all -solution /tmp/f5c205031bf94b7a839b7e9dd1fad673-pulp.sol (default strategy 1)
At line 2 NAME          MODEL
At line 3 ROWS
At line 113 COLUMNS
At line 1347 RHS
At line 1456 BOUNDS
At line 1682 ENDATA
Problem MODEL has 108 rows, 225 columns and 567 elements
Coin0008I MODEL read with 0 errors
Option for timeMode changed from cpu to elapsed
Continuous objective value is 1.40256e+06 - 0.00 seconds
Cgl0004I processed model has 81 rows, 216 columns (216 integer (0 of which binary)) and 396 elements
Cutoff increment increased from 1e-05 to 0.9999
Cbc0012I Integer solution of -1402558 found by DiveCoefficient after 0 iterations and 0 nodes (0.00 seconds)
Cbc0001I Search completed - best objective -1402558, took 0 iterations and 0 nodes (0.00 seconds)
Cbc0035I Maximum depth 0, 0 variables fixed on reduced cost
Cuts at root node changed objective from -1.40256e+06 to -1.40256e+06
Probing was tried 0 times and created 0 cuts of which 0 were active after adding rounds of cuts (0.000 seconds)
Gomory was tried 0 times and created 0 cuts of which 0 were active after adding rounds of cuts (0.000 seconds)
Knapsack was tried 0 times and created 0 cuts of which 0 were active after adding rounds of cuts (0.000 seconds)
Clique was tried 0 times and created 0 cuts of which 0 were active after adding rounds of cuts (0.000 seconds)
MixedIntegerRounding2 was tried 0 times and created 0 cuts of which 0 were active after adding rounds of cuts (0.000 seconds)
FlowCover was tried 0 times and created 0 cuts of which 0 were active after adding rounds of cuts (0.000 seconds)
TwoMirCuts was tried 0 times and created 0 cuts of which 0 were active after adding rounds of cuts (0.000 seconds)
ZeroHalf was tried 0 times and created 0 cuts of which 0 were active after adding rounds of cuts (0.000 seconds)

Result - Optimal solution found

Objective value:                1402558.00000000
Enumerated nodes:               0
Total iterations:               0
Time (CPU seconds):             0.00
Time (Wallclock seconds):       0.00

Option for printingOptions changed from normal to all
Total time (CPU seconds):       0.00   (Wallclock seconds):       0.00

